NAME : sample1
TYPE : TSP
DIMENSION : 20
EDGE_WEIGHT_TYPE : EUC_2D
NODE_COORD_SECTION
	0	-8,5	19,38
	1	8,42	14,31
	2	1,59	-13,06
	3	-3,31	4,87
	4	4,48	-3,75
	5	4,62	-12,44
	6	4,42	8,29
	7	7,6	-7,5
	8	-2,83	1,72
	9	13,68	-12,4
	10	15,38	-18,7
	11	14,4	9,17
	12	-7,94	-17,6
	13	16,08	-6,88
	14	18,9	9,82
	15	2,28	7,84
	16	-14,78	15,37
	17	-9,86	17,52
	18	12,36	15,76
	19	-5,04	0,27
EOF